certificates/rado_a14_c88_N39.cnf
c Rad2 upper bound instance: x1 + 14*x2 - x3 = 88, interval [1,39]
p cnf 39 216
1 7 11 0
-1 -7 -11 0
1 8 25 0
-1 -8 -25 0
1 9 39 0
-1 -9 -39 0
2 7 12 0
-2 -7 -12 0
2 8 26 0
-2 -8 -26 0
3 7 13 0
-3 -7 -13 0
3 8 27 0
-3 -8 -27 0
4 7 14 0
-4 -7 -14 0
4 8 28 0
-4 -8 -28 0
1 5 6 0
-1 -5 -6 0
5 7 15 0
-5 -7 -15 0
5 8 29 0
-5 -8 -29 0
2 6 0
-2 -6 0
6 7 16 0
-6 -7 -16 0
6 8 30 0
-6 -8 -30 0
3 6 7 0
-3 -6 -7 0
7 17 0
-7 -17 0
7 8 31 0
-7 -8 -31 0
4 6 8 0
-4 -6 -8 0
7 8 18 0
-7 -8 -18 0
8 32 0
-8 -32 0
5 6 9 0
-5 -6 -9 0
7 9 19 0
-7 -9 -19 0
8 9 33 0
-8 -9 -33 0
6 10 0
-6 -10 0
7 10 20 0
-7 -10 -20 0
8 10 34 0
-8 -10 -34 0
6 7 11 0
-6 -7 -11 0
7 11 21 0
-7 -11 -21 0
8 11 35 0
-8 -11 -35 0
6 8 12 0
-6 -8 -12 0
7 12 22 0
-7 -12 -22 0
8 12 36 0
-8 -12 -36 0
6 9 13 0
-6 -9 -13 0
7 13 23 0
-7 -13 -23 0
8 13 37 0
-8 -13 -37 0
6 10 14 0
-6 -10 -14 0
7 14 24 0
-7 -14 -24 0
8 14 38 0
-8 -14 -38 0
6 11 15 0
-6 -11 -15 0
7 15 25 0
-7 -15 -25 0
8 15 39 0
-8 -15 -39 0
6 12 16 0
-6 -12 -16 0
7 16 26 0
-7 -16 -26 0
6 13 17 0
-6 -13 -17 0
7 17 27 0
-7 -17 -27 0
6 14 18 0
-6 -14 -18 0
7 18 28 0
-7 -18 -28 0
1 5 19 0
-1 -5 -19 0
6 15 19 0
-6 -15 -19 0
7 19 29 0
-7 -19 -29 0
2 5 20 0
-2 -5 -20 0
6 16 20 0
-6 -16 -20 0
7 20 30 0
-7 -20 -30 0
3 5 21 0
-3 -5 -21 0
6 17 21 0
-6 -17 -21 0
7 21 31 0
-7 -21 -31 0
4 5 22 0
-4 -5 -22 0
6 18 22 0
-6 -18 -22 0
7 22 32 0
-7 -22 -32 0
5 23 0
-5 -23 0
6 19 23 0
-6 -19 -23 0
7 23 33 0
-7 -23 -33 0
5 6 24 0
-5 -6 -24 0
6 20 24 0
-6 -20 -24 0
7 24 34 0
-7 -24 -34 0
5 7 25 0
-5 -7 -25 0
6 21 25 0
-6 -21 -25 0
7 25 35 0
-7 -25 -35 0
5 8 26 0
-5 -8 -26 0
6 22 26 0
-6 -22 -26 0
7 26 36 0
-7 -26 -36 0
5 9 27 0
-5 -9 -27 0
6 23 27 0
-6 -23 -27 0
7 27 37 0
-7 -27 -37 0
5 10 28 0
-5 -10 -28 0
6 24 28 0
-6 -24 -28 0
7 28 38 0
-7 -28 -38 0
5 11 29 0
-5 -11 -29 0
6 25 29 0
-6 -25 -29 0
7 29 39 0
-7 -29 -39 0
5 12 30 0
-5 -12 -30 0
6 26 30 0
-6 -26 -30 0
5 13 31 0
-5 -13 -31 0
6 27 31 0
-6 -27 -31 0
5 14 32 0
-5 -14 -32 0
6 28 32 0
-6 -28 -32 0
1 4 33 0
-1 -4 -33 0
5 15 33 0
-5 -15 -33 0
6 29 33 0
-6 -29 -33 0
2 4 34 0
-2 -4 -34 0
5 16 34 0
-5 -16 -34 0
6 30 34 0
-6 -30 -34 0
3 4 35 0
-3 -4 -35 0
5 17 35 0
-5 -17 -35 0
6 31 35 0
-6 -31 -35 0
4 36 0
-4 -36 0
5 18 36 0
-5 -18 -36 0
6 32 36 0
-6 -32 -36 0
4 5 37 0
-4 -5 -37 0
5 19 37 0
-5 -19 -37 0
6 33 37 0
-6 -33 -37 0
4 6 38 0
-4 -6 -38 0
5 20 38 0
-5 -20 -38 0
6 34 38 0
-6 -34 -38 0
4 7 39 0
-4 -7 -39 0
5 21 39 0
-5 -21 -39 0
6 35 39 0
-6 -35 -39 0
