certificates/rado_a14_c88_N39.drat
-35 4 -39 0
11 15 -3 35 0
-8 -3 4 -38 0
8 4 0
d 8 28 4 0
-3 4 -38 0
d -8 -3 4 -38 0
4 -38 -39 0
5 6 -39 0
-38 -39 0
d 4 -38 -39 0
-4 -39 0
-39 0
-5 -6 0
d -1 -5 -6 0
-6 4 0
4 0
-36 0
6 0
-2 0
-10 0
-8 0
-38 0
-5 0
26 0
34 0
32 0
12 0
14 0
15 0
20 0
23 0
28 0
18 0
21 0
29 0
-22 0
-30 0
0
